; benchmark generated from python API
(set-info :status unknown)
(declare-fun |im(z3)| () Real)
(declare-fun |im(z2)| () Real)
(declare-fun |im(z1)| () Real)
(declare-fun |im(z0)| () Real)
(declare-fun |re(z3)| () Real)
(declare-fun |re(z2)| () Real)
(declare-fun |re(z1)| () Real)
(declare-fun |re(z0)| () Real)
(assert
 (let ((?x21 (^ |im(z3)| 2.0)))
 (let ((?x20 (^ |im(z2)| 2.0)))
 (let ((?x19 (^ |im(z1)| 2.0)))
 (let ((?x18 (^ |im(z0)| 2.0)))
 (let ((?x17 (^ |re(z3)| 2.0)))
 (let ((?x16 (^ |re(z2)| 2.0)))
 (let ((?x15 (^ |re(z1)| 2.0)))
 (let ((?x14 (^ |re(z0)| 2.0)))
 (= (+ ?x14 ?x15 ?x16 ?x17 ?x18 ?x19 ?x20 ?x21) 1.0))))))))))
(assert
 (let ((?x128 (* (- (/ 377397747595631.0 62500000000000000000000000.0)) (* (^ |re(z1)| 2.0) (^ |re(z2)| 2.0)))))
 (let ((?x122 (* (- (/ 377397747595631.0 62500000000000000000000000.0)) (* (^ |im(z1)| 2.0) (^ |im(z2)| 2.0)))))
 (let ((?x120 (* (/ 6929256925038723.0 10000000000000.0) (* (^ |re(z0)| 2.0) (^ |re(z3)| 2.0)))))
 (let ((?x114 (* (/ 6929256925038723.0 10000000000000.0) (* (^ |im(z0)| 2.0) (^ |im(z3)| 2.0)))))
 (let ((?x38 (* (/ 10540903698787193.0 50000000000000.0) (^ |re(z2)| 4.0))))
 (let ((?x35 (* (/ 10540903698787193.0 50000000000000.0) (^ |re(z1)| 4.0))))
 (let ((?x32 (* (/ 10540903698787193.0 50000000000000.0) (^ |im(z2)| 4.0))))
 (let ((?x28 (* (/ 10540903698787193.0 50000000000000.0) (^ |im(z1)| 4.0))))
 (let ((?x159 (+ ?x28 ?x32 ?x35 ?x38 (* (/ 4216361479514877.0 10000000000000.0) (* (^ |im(z1)| 2.0) (^ |re(z1)| 2.0))) (* (/ 4216361479514877.0 10000000000000.0) (* (^ |im(z2)| 2.0) (^ |re(z2)| 2.0))) ?x114 (* (/ 6929256925038723.0 10000000000000.0) (* (^ |im(z0)| 2.0) (^ |re(z3)| 2.0))) (* (/ 6929256925038723.0 10000000000000.0) (* (^ |im(z3)| 2.0) (^ |re(z0)| 2.0))) ?x120 ?x122 (* (- (/ 377397747595631.0 62500000000000000000000000.0)) (* (^ |im(z1)| 2.0) (^ |re(z2)| 2.0))) (* (- (/ 377397747595631.0 62500000000000000000000000.0)) (* (^ |im(z2)| 2.0) (^ |re(z1)| 2.0))) ?x128)))
 (not (<= ?x159 (/ 6496178417223803.0 50000000000000.0)))))))))))))
(assert
 (let ((?x18 (^ |im(z0)| 2.0)))
 (let ((?x14 (^ |re(z0)| 2.0)))
 (let ((?x73 (+ ?x14 ?x18)))
 (>= ?x73 (/ 1.0 4.0))))))
(assert
 (let ((?x18 (^ |im(z0)| 2.0)))
 (let ((?x14 (^ |re(z0)| 2.0)))
 (let ((?x73 (+ ?x14 ?x18)))
 (<= ?x73 (/ 1.0 4.0))))))
(assert
 (let ((?x19 (^ |im(z1)| 2.0)))
 (let ((?x15 (^ |re(z1)| 2.0)))
 (let ((?x79 (+ ?x15 ?x19)))
 (>= ?x79 (/ 1.0 4.0))))))
(assert
 (let ((?x19 (^ |im(z1)| 2.0)))
 (let ((?x15 (^ |re(z1)| 2.0)))
 (let ((?x79 (+ ?x15 ?x19)))
 (<= ?x79 (/ 1.0 4.0))))))
(assert
 (let ((?x20 (^ |im(z2)| 2.0)))
 (let ((?x16 (^ |re(z2)| 2.0)))
 (let ((?x83 (+ ?x16 ?x20)))
 (>= ?x83 (/ 1.0 4.0))))))
(assert
 (let ((?x20 (^ |im(z2)| 2.0)))
 (let ((?x16 (^ |re(z2)| 2.0)))
 (let ((?x83 (+ ?x16 ?x20)))
 (<= ?x83 (/ 1.0 4.0))))))
(assert
 (let ((?x21 (^ |im(z3)| 2.0)))
 (let ((?x17 (^ |re(z3)| 2.0)))
 (let ((?x87 (+ ?x17 ?x21)))
 (>= ?x87 (/ 1.0 4.0))))))
(assert
 (let ((?x21 (^ |im(z3)| 2.0)))
(let ((?x17 (^ |re(z3)| 2.0)))
(let ((?x87 (+ ?x17 ?x21)))
(<= ?x87 (/ 1.0 4.0))))))
(check-sat)
